num_offers = 25;
num_halls = 10;
start=[10,3,34,13,18,20,15,26,40,74,4,2,96,28,69,41,39,67,71,22,45,17,36,32,27];
end=[91,100,83,34,79,93,93,39,42,90,94,88,99,60,73,98,73,96,99,68,94,70,85,45,69];
price=[7283,4877,761,240,1153,5183,2473,951,127,1396,7593,3547,113,443,461,3639,1406,610,1209,2234,1764,901,907,1361,2439];
requirement=[335,396,581,212,597,303,491,513,747,311,693,536,396,362,273,416,835,270,917,747,828,215,461,440,397];
capacity=[559,975,963,434,864,969,999,611,855,763];
